c Sudoku solution
p cnf 729 0
119 0
126 0
141 0
154 0
198 0
224 0
235 0
279 0
352 0
383 0
458 0
462 0
525 0
566 0
614 0
647 0
659 0
672 0
685 0
445 0
544 0
774 0
394 0
484 0
793 0
834 0
964 0
899 0
589 0
578 0
473 0
995 0
292 0
187 0
175 0
132 0
213 0
163 0
365 0
349 0
281 0
376 0
512 0
769 0
661 0
553 0
696 0
921 0
939 0
823 0
722 0
751 0
855 0
715 0
737 0
871 0
977 0
943 0
842 0
982 0
867 0
956 0
748 0
786 0
888 0
816 0
918 0
436 0
429 0
628 0
633 0
327 0
311 0
338 0
417 0
531 0
491 0
597 0
246 0
257 0
268 0
